nNurses = 125;
nHours = 38;
minHours = 6;
maxHours = 17;
maxConsec = 7;
maxPresence = 13;
demand = [17, 16, 17, 20, 18, 19, 18, 22, 18, 22, 25, 24, 23, 27, 26, 29, 25, 28, 31, 35, 30, 28, 23, 25, 22, 24, 29, 32, 29, 29, 29, 33, 35, 31, 28, 28, 32, 31];
